p cnf 375 2550
6 0
11 0
16 0
21 0
12 0
17 0
22 0
18 0
23 0
24 0
-6 -12 11 0
-6 -17 16 0
-6 -22 21 0
-11 -8 6 0
-11 -18 16 0
-11 -23 21 0
-16 -9 6 0
-16 -14 11 0
-16 -24 21 0
-21 -10 6 0
-21 -15 11 0
-21 -20 16 0
-2 -11 12 0
-2 -16 17 0
-2 -21 22 0
-12 -3 2 0
-12 -18 17 0
-12 -23 22 0
-17 -4 2 0
-17 -14 12 0
-17 -24 22 0
-22 -5 2 0
-22 -15 12 0
-22 -20 17 0
-3 -6 8 0
-3 -16 18 0
-3 -21 23 0
-8 -2 3 0
-8 -17 18 0
-8 -22 23 0
-18 -4 3 0
-18 -9 8 0
-18 -24 23 0
-23 -5 3 0
-23 -10 8 0
-23 -20 18 0
-4 -6 9 0
-4 -11 14 0
-4 -21 24 0
-9 -2 4 0
-9 -12 14 0
-9 -22 24 0
-14 -3 4 0
-14 -8 9 0
-14 -23 24 0
-24 -5 4 0
-24 -10 9 0
-24 -15 14 0
-5 -6 10 0
-5 -11 15 0
-5 -16 20 0
-10 -2 5 0
-10 -12 15 0
-10 -17 20 0
-15 -3 5 0
-15 -8 10 0
-15 -18 20 0
-20 -4 5 0
-20 -9 10 0
-20 -14 15 0
-31 -37 36 0
-31 -42 41 0
-31 -47 46 0
-36 -33 31 0
-36 -43 41 0
-36 -48 46 0
-41 -34 31 0
-41 -39 36 0
-41 -49 46 0
-46 -35 31 0
-46 -40 36 0
-46 -45 41 0
-27 -36 37 0
-27 -41 42 0
-27 -46 47 0
-37 -28 27 0
-37 -43 42 0
-37 -48 47 0
-42 -29 27 0
-42 -39 37 0
-42 -49 47 0
-47 -30 27 0
-47 -40 37 0
-47 -45 42 0
-28 -31 33 0
-28 -41 43 0
-28 -46 48 0
-33 -27 28 0
-33 -42 43 0
-33 -47 48 0
-43 -29 28 0
-43 -34 33 0
-43 -49 48 0
-48 -30 28 0
-48 -35 33 0
-48 -45 43 0
-29 -31 34 0
-29 -36 39 0
-29 -46 49 0
-34 -27 29 0
-34 -37 39 0
-34 -47 49 0
-39 -28 29 0
-39 -33 34 0
-39 -48 49 0
-49 -30 29 0
-49 -35 34 0
-49 -40 39 0
-30 -31 35 0
-30 -36 40 0
-30 -41 45 0
-35 -27 30 0
-35 -37 40 0
-35 -42 45 0
-40 -28 30 0
-40 -33 35 0
-40 -43 45 0
-45 -29 30 0
-45 -34 35 0
-45 -39 40 0
-56 -62 61 0
-56 -67 66 0
-56 -72 71 0
-61 -58 56 0
-61 -68 66 0
-61 -73 71 0
-66 -59 56 0
-66 -64 61 0
-66 -74 71 0
-71 -60 56 0
-71 -65 61 0
-71 -70 66 0
-52 -61 62 0
-52 -66 67 0
-52 -71 72 0
-62 -53 52 0
-62 -68 67 0
-62 -73 72 0
-67 -54 52 0
-67 -64 62 0
-67 -74 72 0
-72 -55 52 0
-72 -65 62 0
-72 -70 67 0
-53 -56 58 0
-53 -66 68 0
-53 -71 73 0
-58 -52 53 0
-58 -67 68 0
-58 -72 73 0
-68 -54 53 0
-68 -59 58 0
-68 -74 73 0
-73 -55 53 0
-73 -60 58 0
-73 -70 68 0
-54 -56 59 0
-54 -61 64 0
-54 -71 74 0
-59 -52 54 0
-59 -62 64 0
-59 -72 74 0
-64 -53 54 0
-64 -58 59 0
-64 -73 74 0
-74 -55 54 0
-74 -60 59 0
-74 -65 64 0
-55 -56 60 0
-55 -61 65 0
-55 -66 70 0
-60 -52 55 0
-60 -62 65 0
-60 -67 70 0
-65 -53 55 0
-65 -58 60 0
-65 -68 70 0
-70 -54 55 0
-70 -59 60 0
-70 -64 65 0
-81 -87 86 0
-81 -92 91 0
-81 -97 96 0
-86 -83 81 0
-86 -93 91 0
-86 -98 96 0
-91 -84 81 0
-91 -89 86 0
-91 -99 96 0
-96 -85 81 0
-96 -90 86 0
-96 -95 91 0
-77 -86 87 0
-77 -91 92 0
-77 -96 97 0
-87 -78 77 0
-87 -93 92 0
-87 -98 97 0
-92 -79 77 0
-92 -89 87 0
-92 -99 97 0
-97 -80 77 0
-97 -90 87 0
-97 -95 92 0
-78 -81 83 0
-78 -91 93 0
-78 -96 98 0
-83 -77 78 0
-83 -92 93 0
-83 -97 98 0
-93 -79 78 0
-93 -84 83 0
-93 -99 98 0
-98 -80 78 0
-98 -85 83 0
-98 -95 93 0
-79 -81 84 0
-79 -86 89 0
-79 -96 99 0
-84 -77 79 0
-84 -87 89 0
-84 -97 99 0
-89 -78 79 0
-89 -83 84 0
-89 -98 99 0
-99 -80 79 0
-99 -85 84 0
-99 -90 89 0
-80 -81 85 0
-80 -86 90 0
-80 -91 95 0
-85 -77 80 0
-85 -87 90 0
-85 -92 95 0
-90 -78 80 0
-90 -83 85 0
-90 -93 95 0
-95 -79 80 0
-95 -84 85 0
-95 -89 90 0
-106 -112 111 0
-106 -117 116 0
-106 -122 121 0
-111 -108 106 0
-111 -118 116 0
-111 -123 121 0
-116 -109 106 0
-116 -114 111 0
-116 -124 121 0
-121 -110 106 0
-121 -115 111 0
-121 -120 116 0
-102 -111 112 0
-102 -116 117 0
-102 -121 122 0
-112 -103 102 0
-112 -118 117 0
-112 -123 122 0
-117 -104 102 0
-117 -114 112 0
-117 -124 122 0
-122 -105 102 0
-122 -115 112 0
-122 -120 117 0
-103 -106 108 0
-103 -116 118 0
-103 -121 123 0
-108 -102 103 0
-108 -117 118 0
-108 -122 123 0
-118 -104 103 0
-118 -109 108 0
-118 -124 123 0
-123 -105 103 0
-123 -110 108 0
-123 -120 118 0
-104 -106 109 0
-104 -111 114 0
-104 -121 124 0
-109 -102 104 0
-109 -112 114 0
-109 -122 124 0
-114 -103 104 0
-114 -108 109 0
-114 -123 124 0
-124 -105 104 0
-124 -110 109 0
-124 -115 114 0
-105 -106 110 0
-105 -111 115 0
-105 -116 120 0
-110 -102 105 0
-110 -112 115 0
-110 -117 120 0
-115 -103 105 0
-115 -108 110 0
-115 -118 120 0
-120 -104 105 0
-120 -109 110 0
-120 -114 115 0
-131 -137 136 0
-131 -142 141 0
-131 -147 146 0
-136 -133 131 0
-136 -143 141 0
-136 -148 146 0
-141 -134 131 0
-141 -139 136 0
-141 -149 146 0
-146 -135 131 0
-146 -140 136 0
-146 -145 141 0
-127 -136 137 0
-127 -141 142 0
-127 -146 147 0
-137 -128 127 0
-137 -143 142 0
-137 -148 147 0
-142 -129 127 0
-142 -139 137 0
-142 -149 147 0
-147 -130 127 0
-147 -140 137 0
-147 -145 142 0
-128 -131 133 0
-128 -141 143 0
-128 -146 148 0
-133 -127 128 0
-133 -142 143 0
-133 -147 148 0
-143 -129 128 0
-143 -134 133 0
-143 -149 148 0
-148 -130 128 0
-148 -135 133 0
-148 -145 143 0
-129 -131 134 0
-129 -136 139 0
-129 -146 149 0
-134 -127 129 0
-134 -137 139 0
-134 -147 149 0
-139 -128 129 0
-139 -133 134 0
-139 -148 149 0
-149 -130 129 0
-149 -135 134 0
-149 -140 139 0
-130 -131 135 0
-130 -136 140 0
-130 -141 145 0
-135 -127 130 0
-135 -137 140 0
-135 -142 145 0
-140 -128 130 0
-140 -133 135 0
-140 -143 145 0
-145 -129 130 0
-145 -134 135 0
-145 -139 140 0
-156 -162 161 0
-156 -167 166 0
-156 -172 171 0
-161 -158 156 0
-161 -168 166 0
-161 -173 171 0
-166 -159 156 0
-166 -164 161 0
-166 -174 171 0
-171 -160 156 0
-171 -165 161 0
-171 -170 166 0
-152 -161 162 0
-152 -166 167 0
-152 -171 172 0
-162 -153 152 0
-162 -168 167 0
-162 -173 172 0
-167 -154 152 0
-167 -164 162 0
-167 -174 172 0
-172 -155 152 0
-172 -165 162 0
-172 -170 167 0
-153 -156 158 0
-153 -166 168 0
-153 -171 173 0
-158 -152 153 0
-158 -167 168 0
-158 -172 173 0
-168 -154 153 0
-168 -159 158 0
-168 -174 173 0
-173 -155 153 0
-173 -160 158 0
-173 -170 168 0
-154 -156 159 0
-154 -161 164 0
-154 -171 174 0
-159 -152 154 0
-159 -162 164 0
-159 -172 174 0
-164 -153 154 0
-164 -158 159 0
-164 -173 174 0
-174 -155 154 0
-174 -160 159 0
-174 -165 164 0
-155 -156 160 0
-155 -161 165 0
-155 -166 170 0
-160 -152 155 0
-160 -162 165 0
-160 -167 170 0
-165 -153 155 0
-165 -158 160 0
-165 -168 170 0
-170 -154 155 0
-170 -159 160 0
-170 -164 165 0
-181 -187 186 0
-181 -192 191 0
-181 -197 196 0
-186 -183 181 0
-186 -193 191 0
-186 -198 196 0
-191 -184 181 0
-191 -189 186 0
-191 -199 196 0
-196 -185 181 0
-196 -190 186 0
-196 -195 191 0
-177 -186 187 0
-177 -191 192 0
-177 -196 197 0
-187 -178 177 0
-187 -193 192 0
-187 -198 197 0
-192 -179 177 0
-192 -189 187 0
-192 -199 197 0
-197 -180 177 0
-197 -190 187 0
-197 -195 192 0
-178 -181 183 0
-178 -191 193 0
-178 -196 198 0
-183 -177 178 0
-183 -192 193 0
-183 -197 198 0
-193 -179 178 0
-193 -184 183 0
-193 -199 198 0
-198 -180 178 0
-198 -185 183 0
-198 -195 193 0
-179 -181 184 0
-179 -186 189 0
-179 -196 199 0
-184 -177 179 0
-184 -187 189 0
-184 -197 199 0
-189 -178 179 0
-189 -183 184 0
-189 -198 199 0
-199 -180 179 0
-199 -185 184 0
-199 -190 189 0
-180 -181 185 0
-180 -186 190 0
-180 -191 195 0
-185 -177 180 0
-185 -187 190 0
-185 -192 195 0
-190 -178 180 0
-190 -183 185 0
-190 -193 195 0
-195 -179 180 0
-195 -184 185 0
-195 -189 190 0
-206 -212 211 0
-206 -217 216 0
-206 -222 221 0
-211 -208 206 0
-211 -218 216 0
-211 -223 221 0
-216 -209 206 0
-216 -214 211 0
-216 -224 221 0
-221 -210 206 0
-221 -215 211 0
-221 -220 216 0
-202 -211 212 0
-202 -216 217 0
-202 -221 222 0
-212 -203 202 0
-212 -218 217 0
-212 -223 222 0
-217 -204 202 0
-217 -214 212 0
-217 -224 222 0
-222 -205 202 0
-222 -215 212 0
-222 -220 217 0
-203 -206 208 0
-203 -216 218 0
-203 -221 223 0
-208 -202 203 0
-208 -217 218 0
-208 -222 223 0
-218 -204 203 0
-218 -209 208 0
-218 -224 223 0
-223 -205 203 0
-223 -210 208 0
-223 -220 218 0
-204 -206 209 0
-204 -211 214 0
-204 -221 224 0
-209 -202 204 0
-209 -212 214 0
-209 -222 224 0
-214 -203 204 0
-214 -208 209 0
-214 -223 224 0
-224 -205 204 0
-224 -210 209 0
-224 -215 214 0
-205 -206 210 0
-205 -211 215 0
-205 -216 220 0
-210 -202 205 0
-210 -212 215 0
-210 -217 220 0
-215 -203 205 0
-215 -208 210 0
-215 -218 220 0
-220 -204 205 0
-220 -209 210 0
-220 -214 215 0
-231 -237 236 0
-231 -242 241 0
-231 -247 246 0
-236 -233 231 0
-236 -243 241 0
-236 -248 246 0
-241 -234 231 0
-241 -239 236 0
-241 -249 246 0
-246 -235 231 0
-246 -240 236 0
-246 -245 241 0
-227 -236 237 0
-227 -241 242 0
-227 -246 247 0
-237 -228 227 0
-237 -243 242 0
-237 -248 247 0
-242 -229 227 0
-242 -239 237 0
-242 -249 247 0
-247 -230 227 0
-247 -240 237 0
-247 -245 242 0
-228 -231 233 0
-228 -241 243 0
-228 -246 248 0
-233 -227 228 0
-233 -242 243 0
-233 -247 248 0
-243 -229 228 0
-243 -234 233 0
-243 -249 248 0
-248 -230 228 0
-248 -235 233 0
-248 -245 243 0
-229 -231 234 0
-229 -236 239 0
-229 -246 249 0
-234 -227 229 0
-234 -237 239 0
-234 -247 249 0
-239 -228 229 0
-239 -233 234 0
-239 -248 249 0
-249 -230 229 0
-249 -235 234 0
-249 -240 239 0
-230 -231 235 0
-230 -236 240 0
-230 -241 245 0
-235 -227 230 0
-235 -237 240 0
-235 -242 245 0
-240 -228 230 0
-240 -233 235 0
-240 -243 245 0
-245 -229 230 0
-245 -234 235 0
-245 -239 240 0
-256 -262 261 0
-256 -267 266 0
-256 -272 271 0
-261 -258 256 0
-261 -268 266 0
-261 -273 271 0
-266 -259 256 0
-266 -264 261 0
-266 -274 271 0
-271 -260 256 0
-271 -265 261 0
-271 -270 266 0
-252 -261 262 0
-252 -266 267 0
-252 -271 272 0
-262 -253 252 0
-262 -268 267 0
-262 -273 272 0
-267 -254 252 0
-267 -264 262 0
-267 -274 272 0
-272 -255 252 0
-272 -265 262 0
-272 -270 267 0
-253 -256 258 0
-253 -266 268 0
-253 -271 273 0
-258 -252 253 0
-258 -267 268 0
-258 -272 273 0
-268 -254 253 0
-268 -259 258 0
-268 -274 273 0
-273 -255 253 0
-273 -260 258 0
-273 -270 268 0
-254 -256 259 0
-254 -261 264 0
-254 -271 274 0
-259 -252 254 0
-259 -262 264 0
-259 -272 274 0
-264 -253 254 0
-264 -258 259 0
-264 -273 274 0
-274 -255 254 0
-274 -260 259 0
-274 -265 264 0
-255 -256 260 0
-255 -261 265 0
-255 -266 270 0
-260 -252 255 0
-260 -262 265 0
-260 -267 270 0
-265 -253 255 0
-265 -258 260 0
-265 -268 270 0
-270 -254 255 0
-270 -259 260 0
-270 -264 265 0
6 2 0
-6 -2 0
11 3 0
-11 -3 0
16 4 0
-16 -4 0
21 5 0
-21 -5 0
2 6 0
-2 -6 0
12 8 0
-12 -8 0
17 9 0
-17 -9 0
22 10 0
-22 -10 0
3 11 0
-3 -11 0
8 12 0
-8 -12 0
18 14 0
-18 -14 0
23 15 0
-23 -15 0
4 16 0
-4 -16 0
9 17 0
-9 -17 0
14 18 0
-14 -18 0
24 20 0
-24 -20 0
5 21 0
-5 -21 0
10 22 0
-10 -22 0
15 23 0
-15 -23 0
20 24 0
-20 -24 0
31 27 0
-31 -27 0
36 28 0
-36 -28 0
41 29 0
-41 -29 0
46 30 0
-46 -30 0
27 31 0
-27 -31 0
37 33 0
-37 -33 0
42 34 0
-42 -34 0
47 35 0
-47 -35 0
28 36 0
-28 -36 0
33 37 0
-33 -37 0
43 39 0
-43 -39 0
48 40 0
-48 -40 0
29 41 0
-29 -41 0
34 42 0
-34 -42 0
39 43 0
-39 -43 0
49 45 0
-49 -45 0
30 46 0
-30 -46 0
35 47 0
-35 -47 0
40 48 0
-40 -48 0
45 49 0
-45 -49 0
56 52 0
-56 -52 0
61 53 0
-61 -53 0
66 54 0
-66 -54 0
71 55 0
-71 -55 0
52 56 0
-52 -56 0
62 58 0
-62 -58 0
67 59 0
-67 -59 0
72 60 0
-72 -60 0
53 61 0
-53 -61 0
58 62 0
-58 -62 0
68 64 0
-68 -64 0
73 65 0
-73 -65 0
54 66 0
-54 -66 0
59 67 0
-59 -67 0
64 68 0
-64 -68 0
74 70 0
-74 -70 0
55 71 0
-55 -71 0
60 72 0
-60 -72 0
65 73 0
-65 -73 0
70 74 0
-70 -74 0
81 77 0
-81 -77 0
86 78 0
-86 -78 0
91 79 0
-91 -79 0
96 80 0
-96 -80 0
77 81 0
-77 -81 0
87 83 0
-87 -83 0
92 84 0
-92 -84 0
97 85 0
-97 -85 0
78 86 0
-78 -86 0
83 87 0
-83 -87 0
93 89 0
-93 -89 0
98 90 0
-98 -90 0
79 91 0
-79 -91 0
84 92 0
-84 -92 0
89 93 0
-89 -93 0
99 95 0
-99 -95 0
80 96 0
-80 -96 0
85 97 0
-85 -97 0
90 98 0
-90 -98 0
95 99 0
-95 -99 0
106 102 0
-106 -102 0
111 103 0
-111 -103 0
116 104 0
-116 -104 0
121 105 0
-121 -105 0
102 106 0
-102 -106 0
112 108 0
-112 -108 0
117 109 0
-117 -109 0
122 110 0
-122 -110 0
103 111 0
-103 -111 0
108 112 0
-108 -112 0
118 114 0
-118 -114 0
123 115 0
-123 -115 0
104 116 0
-104 -116 0
109 117 0
-109 -117 0
114 118 0
-114 -118 0
124 120 0
-124 -120 0
105 121 0
-105 -121 0
110 122 0
-110 -122 0
115 123 0
-115 -123 0
120 124 0
-120 -124 0
131 127 0
-131 -127 0
136 128 0
-136 -128 0
141 129 0
-141 -129 0
146 130 0
-146 -130 0
127 131 0
-127 -131 0
137 133 0
-137 -133 0
142 134 0
-142 -134 0
147 135 0
-147 -135 0
128 136 0
-128 -136 0
133 137 0
-133 -137 0
143 139 0
-143 -139 0
148 140 0
-148 -140 0
129 141 0
-129 -141 0
134 142 0
-134 -142 0
139 143 0
-139 -143 0
149 145 0
-149 -145 0
130 146 0
-130 -146 0
135 147 0
-135 -147 0
140 148 0
-140 -148 0
145 149 0
-145 -149 0
156 152 0
-156 -152 0
161 153 0
-161 -153 0
166 154 0
-166 -154 0
171 155 0
-171 -155 0
152 156 0
-152 -156 0
162 158 0
-162 -158 0
167 159 0
-167 -159 0
172 160 0
-172 -160 0
153 161 0
-153 -161 0
158 162 0
-158 -162 0
168 164 0
-168 -164 0
173 165 0
-173 -165 0
154 166 0
-154 -166 0
159 167 0
-159 -167 0
164 168 0
-164 -168 0
174 170 0
-174 -170 0
155 171 0
-155 -171 0
160 172 0
-160 -172 0
165 173 0
-165 -173 0
170 174 0
-170 -174 0
181 177 0
-181 -177 0
186 178 0
-186 -178 0
191 179 0
-191 -179 0
196 180 0
-196 -180 0
177 181 0
-177 -181 0
187 183 0
-187 -183 0
192 184 0
-192 -184 0
197 185 0
-197 -185 0
178 186 0
-178 -186 0
183 187 0
-183 -187 0
193 189 0
-193 -189 0
198 190 0
-198 -190 0
179 191 0
-179 -191 0
184 192 0
-184 -192 0
189 193 0
-189 -193 0
199 195 0
-199 -195 0
180 196 0
-180 -196 0
185 197 0
-185 -197 0
190 198 0
-190 -198 0
195 199 0
-195 -199 0
206 202 0
-206 -202 0
211 203 0
-211 -203 0
216 204 0
-216 -204 0
221 205 0
-221 -205 0
202 206 0
-202 -206 0
212 208 0
-212 -208 0
217 209 0
-217 -209 0
222 210 0
-222 -210 0
203 211 0
-203 -211 0
208 212 0
-208 -212 0
218 214 0
-218 -214 0
223 215 0
-223 -215 0
204 216 0
-204 -216 0
209 217 0
-209 -217 0
214 218 0
-214 -218 0
224 220 0
-224 -220 0
205 221 0
-205 -221 0
210 222 0
-210 -222 0
215 223 0
-215 -223 0
220 224 0
-220 -224 0
231 227 0
-231 -227 0
236 228 0
-236 -228 0
241 229 0
-241 -229 0
246 230 0
-246 -230 0
227 231 0
-227 -231 0
237 233 0
-237 -233 0
242 234 0
-242 -234 0
247 235 0
-247 -235 0
228 236 0
-228 -236 0
233 237 0
-233 -237 0
243 239 0
-243 -239 0
248 240 0
-248 -240 0
229 241 0
-229 -241 0
234 242 0
-234 -242 0
239 243 0
-239 -243 0
249 245 0
-249 -245 0
230 246 0
-230 -246 0
235 247 0
-235 -247 0
240 248 0
-240 -248 0
245 249 0
-245 -249 0
256 252 0
-256 -252 0
261 253 0
-261 -253 0
266 254 0
-266 -254 0
271 255 0
-271 -255 0
252 256 0
-252 -256 0
262 258 0
-262 -258 0
267 259 0
-267 -259 0
272 260 0
-272 -260 0
253 261 0
-253 -261 0
258 262 0
-258 -262 0
268 264 0
-268 -264 0
273 265 0
-273 -265 0
254 266 0
-254 -266 0
259 267 0
-259 -267 0
264 268 0
-264 -268 0
274 270 0
-274 -270 0
255 271 0
-255 -271 0
260 272 0
-260 -272 0
265 273 0
-265 -273 0
270 274 0
-270 -274 0
-276 -286 0
-276 -296 0
-276 -306 0
-276 -316 0
-276 -326 0
-276 -336 0
-276 -346 0
-276 -356 0
-276 -366 0
-286 -296 0
-286 -306 0
-286 -316 0
-286 -326 0
-286 -336 0
-286 -346 0
-286 -356 0
-286 -366 0
-296 -306 0
-296 -316 0
-296 -326 0
-296 -336 0
-296 -346 0
-296 -356 0
-296 -366 0
-306 -316 0
-306 -326 0
-306 -336 0
-306 -346 0
-306 -356 0
-306 -366 0
-316 -326 0
-316 -336 0
-316 -346 0
-316 -356 0
-316 -366 0
-326 -336 0
-326 -346 0
-326 -356 0
-326 -366 0
-336 -346 0
-336 -356 0
-336 -366 0
-346 -356 0
-346 -366 0
-356 -366 0
-277 -287 0
-277 -297 0
-277 -307 0
-277 -317 0
-277 -327 0
-277 -337 0
-277 -347 0
-277 -357 0
-277 -367 0
-287 -297 0
-287 -307 0
-287 -317 0
-287 -327 0
-287 -337 0
-287 -347 0
-287 -357 0
-287 -367 0
-297 -307 0
-297 -317 0
-297 -327 0
-297 -337 0
-297 -347 0
-297 -357 0
-297 -367 0
-307 -317 0
-307 -327 0
-307 -337 0
-307 -347 0
-307 -357 0
-307 -367 0
-317 -327 0
-317 -337 0
-317 -347 0
-317 -357 0
-317 -367 0
-327 -337 0
-327 -347 0
-327 -357 0
-327 -367 0
-337 -347 0
-337 -357 0
-337 -367 0
-347 -357 0
-347 -367 0
-357 -367 0
-278 -288 0
-278 -298 0
-278 -308 0
-278 -318 0
-278 -328 0
-278 -338 0
-278 -348 0
-278 -358 0
-278 -368 0
-288 -298 0
-288 -308 0
-288 -318 0
-288 -328 0
-288 -338 0
-288 -348 0
-288 -358 0
-288 -368 0
-298 -308 0
-298 -318 0
-298 -328 0
-298 -338 0
-298 -348 0
-298 -358 0
-298 -368 0
-308 -318 0
-308 -328 0
-308 -338 0
-308 -348 0
-308 -358 0
-308 -368 0
-318 -328 0
-318 -338 0
-318 -348 0
-318 -358 0
-318 -368 0
-328 -338 0
-328 -348 0
-328 -358 0
-328 -368 0
-338 -348 0
-338 -358 0
-338 -368 0
-348 -358 0
-348 -368 0
-358 -368 0
-279 -289 0
-279 -299 0
-279 -309 0
-279 -319 0
-279 -329 0
-279 -339 0
-279 -349 0
-279 -359 0
-279 -369 0
-289 -299 0
-289 -309 0
-289 -319 0
-289 -329 0
-289 -339 0
-289 -349 0
-289 -359 0
-289 -369 0
-299 -309 0
-299 -319 0
-299 -329 0
-299 -339 0
-299 -349 0
-299 -359 0
-299 -369 0
-309 -319 0
-309 -329 0
-309 -339 0
-309 -349 0
-309 -359 0
-309 -369 0
-319 -329 0
-319 -339 0
-319 -349 0
-319 -359 0
-319 -369 0
-329 -339 0
-329 -349 0
-329 -359 0
-329 -369 0
-339 -349 0
-339 -359 0
-339 -369 0
-349 -359 0
-349 -369 0
-359 -369 0
-280 -290 0
-280 -300 0
-280 -310 0
-280 -320 0
-280 -330 0
-280 -340 0
-280 -350 0
-280 -360 0
-280 -370 0
-290 -300 0
-290 -310 0
-290 -320 0
-290 -330 0
-290 -340 0
-290 -350 0
-290 -360 0
-290 -370 0
-300 -310 0
-300 -320 0
-300 -330 0
-300 -340 0
-300 -350 0
-300 -360 0
-300 -370 0
-310 -320 0
-310 -330 0
-310 -340 0
-310 -350 0
-310 -360 0
-310 -370 0
-320 -330 0
-320 -340 0
-320 -350 0
-320 -360 0
-320 -370 0
-330 -340 0
-330 -350 0
-330 -360 0
-330 -370 0
-340 -350 0
-340 -360 0
-340 -370 0
-350 -360 0
-350 -370 0
-360 -370 0
-281 -291 0
-281 -301 0
-281 -311 0
-281 -321 0
-281 -331 0
-281 -341 0
-281 -351 0
-281 -361 0
-281 -371 0
-291 -301 0
-291 -311 0
-291 -321 0
-291 -331 0
-291 -341 0
-291 -351 0
-291 -361 0
-291 -371 0
-301 -311 0
-301 -321 0
-301 -331 0
-301 -341 0
-301 -351 0
-301 -361 0
-301 -371 0
-311 -321 0
-311 -331 0
-311 -341 0
-311 -351 0
-311 -361 0
-311 -371 0
-321 -331 0
-321 -341 0
-321 -351 0
-321 -361 0
-321 -371 0
-331 -341 0
-331 -351 0
-331 -361 0
-331 -371 0
-341 -351 0
-341 -361 0
-341 -371 0
-351 -361 0
-351 -371 0
-361 -371 0
-282 -292 0
-282 -302 0
-282 -312 0
-282 -322 0
-282 -332 0
-282 -342 0
-282 -352 0
-282 -362 0
-282 -372 0
-292 -302 0
-292 -312 0
-292 -322 0
-292 -332 0
-292 -342 0
-292 -352 0
-292 -362 0
-292 -372 0
-302 -312 0
-302 -322 0
-302 -332 0
-302 -342 0
-302 -352 0
-302 -362 0
-302 -372 0
-312 -322 0
-312 -332 0
-312 -342 0
-312 -352 0
-312 -362 0
-312 -372 0
-322 -332 0
-322 -342 0
-322 -352 0
-322 -362 0
-322 -372 0
-332 -342 0
-332 -352 0
-332 -362 0
-332 -372 0
-342 -352 0
-342 -362 0
-342 -372 0
-352 -362 0
-352 -372 0
-362 -372 0
-283 -293 0
-283 -303 0
-283 -313 0
-283 -323 0
-283 -333 0
-283 -343 0
-283 -353 0
-283 -363 0
-283 -373 0
-293 -303 0
-293 -313 0
-293 -323 0
-293 -333 0
-293 -343 0
-293 -353 0
-293 -363 0
-293 -373 0
-303 -313 0
-303 -323 0
-303 -333 0
-303 -343 0
-303 -353 0
-303 -363 0
-303 -373 0
-313 -323 0
-313 -333 0
-313 -343 0
-313 -353 0
-313 -363 0
-313 -373 0
-323 -333 0
-323 -343 0
-323 -353 0
-323 -363 0
-323 -373 0
-333 -343 0
-333 -353 0
-333 -363 0
-333 -373 0
-343 -353 0
-343 -363 0
-343 -373 0
-353 -363 0
-353 -373 0
-363 -373 0
-284 -294 0
-284 -304 0
-284 -314 0
-284 -324 0
-284 -334 0
-284 -344 0
-284 -354 0
-284 -364 0
-284 -374 0
-294 -304 0
-294 -314 0
-294 -324 0
-294 -334 0
-294 -344 0
-294 -354 0
-294 -364 0
-294 -374 0
-304 -314 0
-304 -324 0
-304 -334 0
-304 -344 0
-304 -354 0
-304 -364 0
-304 -374 0
-314 -324 0
-314 -334 0
-314 -344 0
-314 -354 0
-314 -364 0
-314 -374 0
-324 -334 0
-324 -344 0
-324 -354 0
-324 -364 0
-324 -374 0
-334 -344 0
-334 -354 0
-334 -364 0
-334 -374 0
-344 -354 0
-344 -364 0
-344 -374 0
-354 -364 0
-354 -374 0
-364 -374 0
-285 -295 0
-285 -305 0
-285 -315 0
-285 -325 0
-285 -335 0
-285 -345 0
-285 -355 0
-285 -365 0
-285 -375 0
-295 -305 0
-295 -315 0
-295 -325 0
-295 -335 0
-295 -345 0
-295 -355 0
-295 -365 0
-295 -375 0
-305 -315 0
-305 -325 0
-305 -335 0
-305 -345 0
-305 -355 0
-305 -365 0
-305 -375 0
-315 -325 0
-315 -335 0
-315 -345 0
-315 -355 0
-315 -365 0
-315 -375 0
-325 -335 0
-325 -345 0
-325 -355 0
-325 -365 0
-325 -375 0
-335 -345 0
-335 -355 0
-335 -365 0
-335 -375 0
-345 -355 0
-345 -365 0
-345 -375 0
-355 -365 0
-355 -375 0
-365 -375 0
276 286 296 306 316 326 336 346 356 366 0
277 287 297 307 317 327 337 347 357 367 0
278 288 298 308 318 328 338 348 358 368 0
279 289 299 309 319 329 339 349 359 369 0
280 290 300 310 320 330 340 350 360 370 0
281 291 301 311 321 331 341 351 361 371 0
282 292 302 312 322 332 342 352 362 372 0
283 293 303 313 323 333 343 353 363 373 0
284 294 304 314 324 334 344 354 364 374 0
285 295 305 315 325 335 345 355 365 375 0
-276 -6 -31 0
-276 6 31 0
-286 -31 -56 0
-286 31 56 0
-296 -56 -81 0
-296 56 81 0
-306 -81 -106 0
-306 81 106 0
-316 -106 -131 0
-316 106 131 0
-326 -131 -156 0
-326 131 156 0
-336 -156 -181 0
-336 156 181 0
-346 -181 -206 0
-346 181 206 0
-356 -206 -231 0
-356 206 231 0
-366 -231 -256 0
-366 231 256 0
-277 -11 -36 0
-277 11 36 0
-287 -36 -61 0
-287 36 61 0
-297 -61 -86 0
-297 61 86 0
-307 -86 -111 0
-307 86 111 0
-317 -111 -136 0
-317 111 136 0
-327 -136 -161 0
-327 136 161 0
-337 -161 -186 0
-337 161 186 0
-347 -186 -211 0
-347 186 211 0
-357 -211 -236 0
-357 211 236 0
-367 -236 -261 0
-367 236 261 0
-278 -16 -41 0
-278 16 41 0
-288 -41 -66 0
-288 41 66 0
-298 -66 -91 0
-298 66 91 0
-308 -91 -116 0
-308 91 116 0
-318 -116 -141 0
-318 116 141 0
-328 -141 -166 0
-328 141 166 0
-338 -166 -191 0
-338 166 191 0
-348 -191 -216 0
-348 191 216 0
-358 -216 -241 0
-358 216 241 0
-368 -241 -266 0
-368 241 266 0
-279 -21 -46 0
-279 21 46 0
-289 -46 -71 0
-289 46 71 0
-299 -71 -96 0
-299 71 96 0
-309 -96 -121 0
-309 96 121 0
-319 -121 -146 0
-319 121 146 0
-329 -146 -171 0
-329 146 171 0
-339 -171 -196 0
-339 171 196 0
-349 -196 -221 0
-349 196 221 0
-359 -221 -246 0
-359 221 246 0
-369 -246 -271 0
-369 246 271 0
-280 -12 -37 0
-280 12 37 0
-290 -37 -62 0
-290 37 62 0
-300 -62 -87 0
-300 62 87 0
-310 -87 -112 0
-310 87 112 0
-320 -112 -137 0
-320 112 137 0
-330 -137 -162 0
-330 137 162 0
-340 -162 -187 0
-340 162 187 0
-350 -187 -212 0
-350 187 212 0
-360 -212 -237 0
-360 212 237 0
-370 -237 -262 0
-370 237 262 0
-281 -12 -37 0
-281 12 37 0
-291 -37 -62 0
-291 37 62 0
-301 -62 -87 0
-301 62 87 0
-311 -87 -112 0
-311 87 112 0
-321 -112 -137 0
-321 112 137 0
-331 -137 -162 0
-331 137 162 0
-341 -162 -187 0
-341 162 187 0
-351 -187 -212 0
-351 187 212 0
-361 -212 -237 0
-361 212 237 0
-371 -237 -262 0
-371 237 262 0
-282 -17 -42 0
-282 17 42 0
-292 -42 -67 0
-292 42 67 0
-302 -67 -92 0
-302 67 92 0
-312 -92 -117 0
-312 92 117 0
-322 -117 -142 0
-322 117 142 0
-332 -142 -167 0
-332 142 167 0
-342 -167 -192 0
-342 167 192 0
-352 -192 -217 0
-352 192 217 0
-362 -217 -242 0
-362 217 242 0
-372 -242 -267 0
-372 242 267 0
-283 -17 -42 0
-283 17 42 0
-293 -42 -67 0
-293 42 67 0
-303 -67 -92 0
-303 67 92 0
-313 -92 -117 0
-313 92 117 0
-323 -117 -142 0
-323 117 142 0
-333 -142 -167 0
-333 142 167 0
-343 -167 -192 0
-343 167 192 0
-353 -192 -217 0
-353 192 217 0
-363 -217 -242 0
-363 217 242 0
-373 -242 -267 0
-373 242 267 0
-284 -23 -48 0
-284 23 48 0
-294 -48 -73 0
-294 48 73 0
-304 -73 -98 0
-304 73 98 0
-314 -98 -123 0
-314 98 123 0
-324 -123 -148 0
-324 123 148 0
-334 -148 -173 0
-334 148 173 0
-344 -173 -198 0
-344 173 198 0
-354 -198 -223 0
-354 198 223 0
-364 -223 -248 0
-364 223 248 0
-374 -248 -273 0
-374 248 273 0
-285 -23 -48 0
-285 23 48 0
-295 -48 -73 0
-295 48 73 0
-305 -73 -98 0
-305 73 98 0
-315 -98 -123 0
-315 98 123 0
-325 -123 -148 0
-325 123 148 0
-335 -148 -173 0
-335 148 173 0
-345 -173 -198 0
-345 173 198 0
-355 -198 -223 0
-355 198 223 0
-365 -223 -248 0
-365 223 248 0
-375 -248 -273 0
-375 248 273 0
-6 31 276 0
6 -31 276 0
-11 36 277 0
11 -36 277 0
-16 41 278 0
16 -41 278 0
-21 46 279 0
21 -46 279 0
-12 37 280 281 0
12 -37 280 281 0
-17 42 282 283 0
17 -42 282 283 0
-22 47 0
22 -47 0
-18 43 0
18 -43 0
-23 48 284 285 0
23 -48 284 285 0
-24 49 0
24 -49 0
-31 56 286 0
31 -56 286 0
-36 61 287 0
36 -61 287 0
-41 66 288 0
41 -66 288 0
-46 71 289 0
46 -71 289 0
-37 62 290 291 0
37 -62 290 291 0
-42 67 292 293 0
42 -67 292 293 0
-47 72 0
47 -72 0
-43 68 0
43 -68 0
-48 73 294 295 0
48 -73 294 295 0
-49 74 0
49 -74 0
-56 81 296 0
56 -81 296 0
-61 86 297 0
61 -86 297 0
-66 91 298 0
66 -91 298 0
-71 96 299 0
71 -96 299 0
-62 87 300 301 0
62 -87 300 301 0
-67 92 302 303 0
67 -92 302 303 0
-72 97 0
72 -97 0
-68 93 0
68 -93 0
-73 98 304 305 0
73 -98 304 305 0
-74 99 0
74 -99 0
-81 106 306 0
81 -106 306 0
-86 111 307 0
86 -111 307 0
-91 116 308 0
91 -116 308 0
-96 121 309 0
96 -121 309 0
-87 112 310 311 0
87 -112 310 311 0
-92 117 312 313 0
92 -117 312 313 0
-97 122 0
97 -122 0
-93 118 0
93 -118 0
-98 123 314 315 0
98 -123 314 315 0
-99 124 0
99 -124 0
-106 131 316 0
106 -131 316 0
-111 136 317 0
111 -136 317 0
-116 141 318 0
116 -141 318 0
-121 146 319 0
121 -146 319 0
-112 137 320 321 0
112 -137 320 321 0
-117 142 322 323 0
117 -142 322 323 0
-122 147 0
122 -147 0
-118 143 0
118 -143 0
-123 148 324 325 0
123 -148 324 325 0
-124 149 0
124 -149 0
-131 156 326 0
131 -156 326 0
-136 161 327 0
136 -161 327 0
-141 166 328 0
141 -166 328 0
-146 171 329 0
146 -171 329 0
-137 162 330 331 0
137 -162 330 331 0
-142 167 332 333 0
142 -167 332 333 0
-147 172 0
147 -172 0
-143 168 0
143 -168 0
-148 173 334 335 0
148 -173 334 335 0
-149 174 0
149 -174 0
-156 181 336 0
156 -181 336 0
-161 186 337 0
161 -186 337 0
-166 191 338 0
166 -191 338 0
-171 196 339 0
171 -196 339 0
-162 187 340 341 0
162 -187 340 341 0
-167 192 342 343 0
167 -192 342 343 0
-172 197 0
172 -197 0
-168 193 0
168 -193 0
-173 198 344 345 0
173 -198 344 345 0
-174 199 0
174 -199 0
-181 206 346 0
181 -206 346 0
-186 211 347 0
186 -211 347 0
-191 216 348 0
191 -216 348 0
-196 221 349 0
196 -221 349 0
-187 212 350 351 0
187 -212 350 351 0
-192 217 352 353 0
192 -217 352 353 0
-197 222 0
197 -222 0
-193 218 0
193 -218 0
-198 223 354 355 0
198 -223 354 355 0
-199 224 0
199 -224 0
-206 231 356 0
206 -231 356 0
-211 236 357 0
211 -236 357 0
-216 241 358 0
216 -241 358 0
-221 246 359 0
221 -246 359 0
-212 237 360 361 0
212 -237 360 361 0
-217 242 362 363 0
217 -242 362 363 0
-222 247 0
222 -247 0
-218 243 0
218 -243 0
-223 248 364 365 0
223 -248 364 365 0
-224 249 0
224 -249 0
-231 256 366 0
231 -256 366 0
-236 261 367 0
236 -261 367 0
-241 266 368 0
241 -266 368 0
-246 271 369 0
246 -271 369 0
-237 262 370 371 0
237 -262 370 371 0
-242 267 372 373 0
242 -267 372 373 0
-247 272 0
247 -272 0
-243 268 0
243 -268 0
-248 273 374 375 0
248 -273 374 375 0
-249 274 0
249 -274 0
-276 -277 0
-276 -278 0
-276 -279 0
-276 -280 0
-276 -281 0
-276 -282 0
-276 -283 0
-277 -276 0
-277 -278 0
-277 -279 0
-277 -280 0
-277 -281 0
-277 -284 0
-277 -285 0
-278 -276 0
-278 -277 0
-278 -279 0
-278 -282 0
-278 -283 0
-279 -276 0
-279 -277 0
-279 -278 0
-279 -284 0
-279 -285 0
-280 -276 0
-280 -277 0
-280 -281 0
-280 -282 0
-280 -283 0
-280 -284 0
-280 -285 0
-281 -276 0
-281 -277 0
-281 -280 0
-281 -282 0
-281 -283 0
-281 -284 0
-281 -285 0
-282 -276 0
-282 -278 0
-282 -280 0
-282 -281 0
-282 -283 0
-283 -276 0
-283 -278 0
-283 -280 0
-283 -281 0
-283 -282 0
-284 -277 0
-284 -279 0
-284 -280 0
-284 -281 0
-284 -285 0
-285 -277 0
-285 -279 0
-285 -280 0
-285 -281 0
-285 -284 0
-286 -287 0
-286 -288 0
-286 -289 0
-286 -290 0
-286 -291 0
-286 -292 0
-286 -293 0
-287 -286 0
-287 -288 0
-287 -289 0
-287 -290 0
-287 -291 0
-287 -294 0
-287 -295 0
-288 -286 0
-288 -287 0
-288 -289 0
-288 -292 0
-288 -293 0
-289 -286 0
-289 -287 0
-289 -288 0
-289 -294 0
-289 -295 0
-290 -286 0
-290 -287 0
-290 -291 0
-290 -292 0
-290 -293 0
-290 -294 0
-290 -295 0
-291 -286 0
-291 -287 0
-291 -290 0
-291 -292 0
-291 -293 0
-291 -294 0
-291 -295 0
-292 -286 0
-292 -288 0
-292 -290 0
-292 -291 0
-292 -293 0
-293 -286 0
-293 -288 0
-293 -290 0
-293 -291 0
-293 -292 0
-294 -287 0
-294 -289 0
-294 -290 0
-294 -291 0
-294 -295 0
-295 -287 0
-295 -289 0
-295 -290 0
-295 -291 0
-295 -294 0
-296 -297 0
-296 -298 0
-296 -299 0
-296 -300 0
-296 -301 0
-296 -302 0
-296 -303 0
-297 -296 0
-297 -298 0
-297 -299 0
-297 -300 0
-297 -301 0
-297 -304 0
-297 -305 0
-298 -296 0
-298 -297 0
-298 -299 0
-298 -302 0
-298 -303 0
-299 -296 0
-299 -297 0
-299 -298 0
-299 -304 0
-299 -305 0
-300 -296 0
-300 -297 0
-300 -301 0
-300 -302 0
-300 -303 0
-300 -304 0
-300 -305 0
-301 -296 0
-301 -297 0
-301 -300 0
-301 -302 0
-301 -303 0
-301 -304 0
-301 -305 0
-302 -296 0
-302 -298 0
-302 -300 0
-302 -301 0
-302 -303 0
-303 -296 0
-303 -298 0
-303 -300 0
-303 -301 0
-303 -302 0
-304 -297 0
-304 -299 0
-304 -300 0
-304 -301 0
-304 -305 0
-305 -297 0
-305 -299 0
-305 -300 0
-305 -301 0
-305 -304 0
-306 -307 0
-306 -308 0
-306 -309 0
-306 -310 0
-306 -311 0
-306 -312 0
-306 -313 0
-307 -306 0
-307 -308 0
-307 -309 0
-307 -310 0
-307 -311 0
-307 -314 0
-307 -315 0
-308 -306 0
-308 -307 0
-308 -309 0
-308 -312 0
-308 -313 0
-309 -306 0
-309 -307 0
-309 -308 0
-309 -314 0
-309 -315 0
-310 -306 0
-310 -307 0
-310 -311 0
-310 -312 0
-310 -313 0
-310 -314 0
-310 -315 0
-311 -306 0
-311 -307 0
-311 -310 0
-311 -312 0
-311 -313 0
-311 -314 0
-311 -315 0
-312 -306 0
-312 -308 0
-312 -310 0
-312 -311 0
-312 -313 0
-313 -306 0
-313 -308 0
-313 -310 0
-313 -311 0
-313 -312 0
-314 -307 0
-314 -309 0
-314 -310 0
-314 -311 0
-314 -315 0
-315 -307 0
-315 -309 0
-315 -310 0
-315 -311 0
-315 -314 0
-316 -317 0
-316 -318 0
-316 -319 0
-316 -320 0
-316 -321 0
-316 -322 0
-316 -323 0
-317 -316 0
-317 -318 0
-317 -319 0
-317 -320 0
-317 -321 0
-317 -324 0
-317 -325 0
-318 -316 0
-318 -317 0
-318 -319 0
-318 -322 0
-318 -323 0
-319 -316 0
-319 -317 0
-319 -318 0
-319 -324 0
-319 -325 0
-320 -316 0
-320 -317 0
-320 -321 0
-320 -322 0
-320 -323 0
-320 -324 0
-320 -325 0
-321 -316 0
-321 -317 0
-321 -320 0
-321 -322 0
-321 -323 0
-321 -324 0
-321 -325 0
-322 -316 0
-322 -318 0
-322 -320 0
-322 -321 0
-322 -323 0
-323 -316 0
-323 -318 0
-323 -320 0
-323 -321 0
-323 -322 0
-324 -317 0
-324 -319 0
-324 -320 0
-324 -321 0
-324 -325 0
-325 -317 0
-325 -319 0
-325 -320 0
-325 -321 0
-325 -324 0
-326 -327 0
-326 -328 0
-326 -329 0
-326 -330 0
-326 -331 0
-326 -332 0
-326 -333 0
-327 -326 0
-327 -328 0
-327 -329 0
-327 -330 0
-327 -331 0
-327 -334 0
-327 -335 0
-328 -326 0
-328 -327 0
-328 -329 0
-328 -332 0
-328 -333 0
-329 -326 0
-329 -327 0
-329 -328 0
-329 -334 0
-329 -335 0
-330 -326 0
-330 -327 0
-330 -331 0
-330 -332 0
-330 -333 0
-330 -334 0
-330 -335 0
-331 -326 0
-331 -327 0
-331 -330 0
-331 -332 0
-331 -333 0
-331 -334 0
-331 -335 0
-332 -326 0
-332 -328 0
-332 -330 0
-332 -331 0
-332 -333 0
-333 -326 0
-333 -328 0
-333 -330 0
-333 -331 0
-333 -332 0
-334 -327 0
-334 -329 0
-334 -330 0
-334 -331 0
-334 -335 0
-335 -327 0
-335 -329 0
-335 -330 0
-335 -331 0
-335 -334 0
-336 -337 0
-336 -338 0
-336 -339 0
-336 -340 0
-336 -341 0
-336 -342 0
-336 -343 0
-337 -336 0
-337 -338 0
-337 -339 0
-337 -340 0
-337 -341 0
-337 -344 0
-337 -345 0
-338 -336 0
-338 -337 0
-338 -339 0
-338 -342 0
-338 -343 0
-339 -336 0
-339 -337 0
-339 -338 0
-339 -344 0
-339 -345 0
-340 -336 0
-340 -337 0
-340 -341 0
-340 -342 0
-340 -343 0
-340 -344 0
-340 -345 0
-341 -336 0
-341 -337 0
-341 -340 0
-341 -342 0
-341 -343 0
-341 -344 0
-341 -345 0
-342 -336 0
-342 -338 0
-342 -340 0
-342 -341 0
-342 -343 0
-343 -336 0
-343 -338 0
-343 -340 0
-343 -341 0
-343 -342 0
-344 -337 0
-344 -339 0
-344 -340 0
-344 -341 0
-344 -345 0
-345 -337 0
-345 -339 0
-345 -340 0
-345 -341 0
-345 -344 0
-346 -347 0
-346 -348 0
-346 -349 0
-346 -350 0
-346 -351 0
-346 -352 0
-346 -353 0
-347 -346 0
-347 -348 0
-347 -349 0
-347 -350 0
-347 -351 0
-347 -354 0
-347 -355 0
-348 -346 0
-348 -347 0
-348 -349 0
-348 -352 0
-348 -353 0
-349 -346 0
-349 -347 0
-349 -348 0
-349 -354 0
-349 -355 0
-350 -346 0
-350 -347 0
-350 -351 0
-350 -352 0
-350 -353 0
-350 -354 0
-350 -355 0
-351 -346 0
-351 -347 0
-351 -350 0
-351 -352 0
-351 -353 0
-351 -354 0
-351 -355 0
-352 -346 0
-352 -348 0
-352 -350 0
-352 -351 0
-352 -353 0
-353 -346 0
-353 -348 0
-353 -350 0
-353 -351 0
-353 -352 0
-354 -347 0
-354 -349 0
-354 -350 0
-354 -351 0
-354 -355 0
-355 -347 0
-355 -349 0
-355 -350 0
-355 -351 0
-355 -354 0
-356 -357 0
-356 -358 0
-356 -359 0
-356 -360 0
-356 -361 0
-356 -362 0
-356 -363 0
-357 -356 0
-357 -358 0
-357 -359 0
-357 -360 0
-357 -361 0
-357 -364 0
-357 -365 0
-358 -356 0
-358 -357 0
-358 -359 0
-358 -362 0
-358 -363 0
-359 -356 0
-359 -357 0
-359 -358 0
-359 -364 0
-359 -365 0
-360 -356 0
-360 -357 0
-360 -361 0
-360 -362 0
-360 -363 0
-360 -364 0
-360 -365 0
-361 -356 0
-361 -357 0
-361 -360 0
-361 -362 0
-361 -363 0
-361 -364 0
-361 -365 0
-362 -356 0
-362 -358 0
-362 -360 0
-362 -361 0
-362 -363 0
-363 -356 0
-363 -358 0
-363 -360 0
-363 -361 0
-363 -362 0
-364 -357 0
-364 -359 0
-364 -360 0
-364 -361 0
-364 -365 0
-365 -357 0
-365 -359 0
-365 -360 0
-365 -361 0
-365 -364 0
-366 -367 0
-366 -368 0
-366 -369 0
-366 -370 0
-366 -371 0
-366 -372 0
-366 -373 0
-367 -366 0
-367 -368 0
-367 -369 0
-367 -370 0
-367 -371 0
-367 -374 0
-367 -375 0
-368 -366 0
-368 -367 0
-368 -369 0
-368 -372 0
-368 -373 0
-369 -366 0
-369 -367 0
-369 -368 0
-369 -374 0
-369 -375 0
-370 -366 0
-370 -367 0
-370 -371 0
-370 -372 0
-370 -373 0
-370 -374 0
-370 -375 0
-371 -366 0
-371 -367 0
-371 -370 0
-371 -372 0
-371 -373 0
-371 -374 0
-371 -375 0
-372 -366 0
-372 -368 0
-372 -370 0
-372 -371 0
-372 -373 0
-373 -366 0
-373 -368 0
-373 -370 0
-373 -371 0
-373 -372 0
-374 -367 0
-374 -369 0
-374 -370 0
-374 -371 0
-374 -375 0
-375 -367 0
-375 -369 0
-375 -370 0
-375 -371 0
-375 -374 0